decision_x1=[0,2];
decision_x2=[0,2];
decision_x3=[0,2];
decision_x4=[0,2];
decision_x5=[0,2];
random_y1=[0,2];
constraint_x2_x1=[
0,1,9.5|
0,2,9.1|
1,0,4.4|
1,2,5.6|
2,0,3|
2,1,4.8|
];
constraint_x4_x2=[
0,1,8.8|
0,2,9.1|
1,0,0.38|
1,2,3.2|
2,0,9.3|
2,1,1.4|
];
constraint_x4_x3=[
0,1,3.8|
0,2,3.8|
1,0,0.94|
1,2,8.5|
2,0,0.43|
2,1,3.2|
];
constraint_x5_x2=[
0,1,0.14|
0,2,4.8|
1,0,1.3|
1,2,0.23|
2,0,9.1|
2,1,5.5|
];
constraint_x5_x4=[
0,1,8.8|
0,2,7|
1,0,0.15|
1,2,0.17|
2,0,9.5|
2,1,1|
];
constraint_x1_y1=[
0,0,3.7|
0,1,3|
0,2,9.9|
1,0,9.2|
1,1,8.7|
1,2,9.8|
2,0,2.3|
2,1,5.5|
2,2,9.2|
];
initial_distribution_y1=[0.33,0.41,0.26];
transition_y1=[
0.22,0.44,0.34|
0.42,0.55,0.029|
0.39,0.42,0.19|
];
